
Gurobi 6.5.2 (linux64) logging started Wed Mar 15 12:47:44 2017


Gurobi 6.5.2 (linux64) logging started Wed Mar 15 12:47:44 2017

Optimize a model with 101 rows, 663 columns and 1399 nonzeros
Coefficient statistics:
  Matrix range    [1e+00, 2e+00]
  Objective range [2e+00, 1e+02]
  Bounds range    [1e+00, 1e+00]
  RHS range       [1e+00, 1e+00]
Presolve removed 31 rows and 8 columns
Presolve time: 0.00s
Presolved: 70 rows, 655 columns, 1320 nonzeros
Variable types: 0 continuous, 655 integer (655 binary)

Root relaxation: objective 6.665000e+02, 72 iterations, 0.00 seconds

    Nodes    |    Current Node    |     Objective Bounds      |     Work
 Expl Unexpl |  Obj  Depth IntInf | Incumbent    BestBd   Gap | It/Node Time

     0     0  666.50000    0   16          -  666.50000      -     -    0s
H    0     0                    1442.0000000  666.50000  53.8%     -    0s
H    0     0                    1009.0000000  666.50000  33.9%     -    0s
     0     0  699.75000    0   18 1009.00000  699.75000  30.6%     -    0s
     0     0  706.50000    0    4 1009.00000  706.50000  30.0%     -    0s
     0     0  709.56250    0   33 1009.00000  709.56250  29.7%     -    0s
     0     0  710.12500    0   38 1009.00000  710.12500  29.6%     -    0s
     0     0  714.50000    0    4 1009.00000  714.50000  29.2%     -    0s
     0     0  715.00000    0   28 1009.00000  715.00000  29.1%     -    0s
     0     0  715.00000    0   35 1009.00000  715.00000  29.1%     -    0s
     0     0  715.00000    0   31 1009.00000  715.00000  29.1%     -    0s
     0     2  715.00000    0   31 1009.00000  715.00000  29.1%     -    0s
H   62    27                     729.0000000  716.55000  1.71%   5.3    0s
*  156     5               7     727.0000000  717.00000  1.38%   4.5    0s
*  185     8              12     723.0000000  718.00000  0.69%   4.4    0s
*  251     9               8     721.0000000  718.00000  0.42%   4.3    0s
*  280     9              10     720.0000000  718.00000  0.28%   4.3    0s

Cutting planes:
  Gomory: 11
  Cover: 46
  MIR: 3
  Zero half: 2
  Lazy constraints: 35

Explored 345 nodes (1621 simplex iterations) in 0.15 seconds
Thread count was 8 (of 8 available processors)

Optimal solution found (tolerance 1.00e-04)
Best objective 7.200000000000e+02, best bound 7.200000000000e+02, gap 0.0%
